     Program PWSCF v.6.6 starts on  8Aug2023 at 13:53:38

     R & G space division:  proc/nbgrp/npool/nimage =     128
     Fft bands division:     nmany     =       1
     Waiting for input...
     Reading input from standard input

     Current dimensions of program PWSCF are:
     Max number of different atomic species (ntypx) = 10
     Max number of k-points (npk) =  40000
     Max angular momentum in pseudopotentials (lmaxx) =  3
     file W.pbe-spn-kjpaw_psl.1.0.0.UPF: wavefunction(s)  6S 5P 5D renormalized
     file S.pbe-n-kjpaw_psl.1.0.0.UPF: wavefunction(s)  3S 3P renormalized

     Parameters for DFT-D3 Dispersion Correction:
       Reference C6 values for interpolation:

         atom   Coordination number   C6
         S          0.000           268.01
         S          0.995           261.99
         S          1.990           251.62
         W          0.000          1628.72
         W          1.929          1086.81
         W         10.915           796.19

       Values used:

         atom   Coordination number  R0_AB[au]  C6      C8
         W          9.217            3.766    796.19 128250.55
         W          9.217            3.766    796.19 128250.55
         W          9.217            3.766    796.19 128250.55
         W          9.217            3.766    796.19 128250.55
         W          9.217            3.766    796.19 128250.55
         W          9.217            3.766    796.19 128250.55
         W          9.217            3.766    796.19 128250.55
         W          9.217            3.766    796.19 128250.55
         S          3.531            3.128    251.62  12327.25
         S          3.531            3.128    251.62  12327.25
         S          3.531            3.128    251.62  12327.25
         S          3.531            3.128    251.62  12327.25
         S          3.531            3.128    251.62  12327.25
         S          3.531            3.128    251.62  12327.25
         S          3.531            3.128    251.62  12327.25
         S          3.531            3.128    251.62  12327.25
         S          3.631            3.128    251.62  12327.25
         S          3.631            3.128    251.62  12327.25
         S          3.631            3.128    251.62  12327.25
         S          3.631            3.128    251.62  12327.25
         S          3.631            3.128    251.62  12327.25
         S          3.631            3.128    251.62  12327.25
         S          3.631            3.128    251.62  12327.25
         S          3.631            3.128    251.62  12327.25

         Molecular C6 ( Ry / a.u.^6 ) =    229679.22

     Subspace diagonalization in iterative solution of the eigenvalue problem:
     a serial algorithm will be used

     Found symmetry operation: I + (  0.0000 -0.5000  0.0000)
     This is a supercell, fractional translations are disabled
     Message from routine setup:
     using ibrav=0 with symmetry is DISCOURAGED, use correct ibrav instead

     bravais-lattice index     =            0
     lattice parameter (alat)  =      24.2792  a.u.
     unit-cell volume          =    2987.0491 (a.u.)^3
     number of atoms/cell      =           24
     number of atomic types    =            2
     number of electrons       =       208.00
     number of Kohn-Sham states=          130
     kinetic-energy cutoff     =     100.0000  Ry
     charge density cutoff     =     500.0000  Ry
     convergence threshold     =      1.0E-08
     mixing beta               =       0.4000
     number of iterations used =            8  plain     mixing
     Exchange-correlation= SLA PW PBX PBC
                           (   1   4   3   4   0   0   0)

     celldm(1)=  24.279201  celldm(2)=   0.000000  celldm(3)=   0.000000
     celldm(4)=   0.000000  celldm(5)=   0.000000  celldm(6)=   0.000000

     crystal axes: (cart. coord. in units of alat)
               a(1) = (   1.008231   0.000000   0.005366 )
               a(2) = (   0.000000   0.502397   0.000000 )
               a(3) = (  -0.171267   0.000000   0.411122 )

     reciprocal axes: (cart. coord. in units 2 pi/alat)
               b(1) = (  0.989642 -0.000000  0.412271 )
               b(2) = (  0.000000  1.990459 -0.000000 )
               b(3) = ( -0.012916  0.000000  2.426987 )

     PseudoPot. # 1 for W  read from file:
     /scratch/bell/mandal13/Work_Data/Other-colab-projects/WS2_Li_Group_project/PP/W.pbe-spn-kjpaw_psl.1.0.0.UPF
     MD5 check sum: 03c3df5b60893f488392c7401945500a
     Pseudo is Projector augmented-wave + core cor, Zval = 14.0
     Generated using "atomic" code by A. Dal Corso v.6.2.2
     Shape of augmentation charge: PSQ
     Using radial grid of 1273 points,  6 beta functions with:
                l(1) =   0
                l(2) =   0
                l(3) =   1
                l(4) =   1
                l(5) =   2
                l(6) =   2
     Q(r) pseudized with 0 coefficients

     PseudoPot. # 2 for S  read from file:
     /scratch/bell/mandal13/Work_Data/Other-colab-projects/WS2_Li_Group_project/PP/S.pbe-n-kjpaw_psl.1.0.0.UPF
     MD5 check sum: fb45dfebcf3e72a4e1bd4a866ec2e262
     Pseudo is Projector augmented-wave + core cor, Zval =  6.0
     Generated using "atomic" code by A. Dal Corso v.6.3
     Shape of augmentation charge: PSQ
     Using radial grid of 1151 points,  6 beta functions with:
                l(1) =   0
                l(2) =   0
                l(3) =   1
                l(4) =   1
                l(5) =   2
                l(6) =   2
     Q(r) pseudized with 0 coefficients

     atomic species   valence    mass     pseudopotential
        W             14.00   183.84000     W ( 1.00)
        S              6.00    32.06500     S ( 1.00)

     Starting magnetic structure
     atomic species   magnetization
        W            0.300
        S            0.100

      4 Sym. Ops., with inversion, found

   Cartesian axes

     site n.     atom                  positions (alat units)
         1           W   tau(   1) = (   0.1953179   0.1255991   0.1233212  )
         2           W   tau(   2) = (   0.1953179   0.3767975   0.1233212  )
         3           W   tau(   3) = (   0.6416454   0.1255991   0.2931665  )
         4           W   tau(   4) = (   0.6416454   0.3767975   0.2931665  )
         5           W   tau(   5) = (   0.6994326  -0.0000000   0.1260040  )
         6           W   tau(   6) = (   0.6994327   0.2511983   0.1260039  )
         7           W   tau(   7) = (   0.1375306  -0.0000000   0.2904837  )
         8           W   tau(   8) = (   0.1375306   0.2511983   0.2904837  )
         9           S   tau(   9) = (   0.0576492   0.0000000   0.1199520  )
        10           S   tau(  10) = (   0.0576492   0.2511983   0.1199520  )
        11           S   tau(  11) = (   0.7793141   0.0000000   0.2965356  )
        12           S   tau(  12) = (   0.7793141   0.2511983   0.2965356  )
        13           S   tau(  13) = (   0.5617641   0.1255992   0.1226348  )
        14           S   tau(  14) = (   0.5617641   0.3767974   0.1226348  )
        15           S   tau(  15) = (   0.2751992   0.1255992   0.2938527  )
        16           S   tau(  16) = (   0.2751992   0.3767974   0.2938527  )
        17           S   tau(  17) = (   0.3313441   0.0000000   0.0740774  )
        18           S   tau(  18) = (   0.3313441   0.2511983   0.0740775  )
        19           S   tau(  19) = (   0.5056192   0.0000000   0.3424101  )
        20           S   tau(  20) = (   0.5056192   0.2511983   0.3424101  )
        21           S   tau(  21) = (   0.8354589   0.1255991   0.0767601  )
        22           S   tau(  22) = (   0.8354589   0.3767975   0.0767601  )
        23           S   tau(  23) = (   0.0015044   0.1255991   0.3397275  )
        24           S   tau(  24) = (   0.0015044   0.3767975   0.3397275  )

     number of k points=   266  Gaussian smearing, width (Ry)=  0.0100

     Number of k-points >= 100: set verbosity='high' to print them.

     Initial potential from superposition of free atoms

     starting charge  207.99502, renormalised to  208.00000
     Starting wfcs are  168 randomized atomic wfcs
     Checking if some PAW data can be deallocated...

     Self-consistent Calculation

     iteration #  1     ecut=   100.00 Ry     beta= 0.40
     Davidson diagonalization with overlap
     ethr =  1.00E-02,  avg # of iterations =  3.1

     Threshold (ethr) on eigenvalues was too large:
     Diagonalizing with lowered threshold

     Davidson diagonalization with overlap
     ethr =  8.54E-04,  avg # of iterations =  1.6

     total energy              =   -7143.58853962 Ry
     estimated scf accuracy    <       1.84167616 Ry

     total magnetization       =     5.11 Bohr mag/cell
     absolute magnetization    =     7.18 Bohr mag/cell

[...]

     iteration #  5     ecut=   100.00 Ry     beta= 0.40
     Davidson diagonalization with overlap
     c_bands:  1 eigenvalues not converged
     c_bands:  1 eigenvalues not converged
     c_bands:  1 eigenvalues not converged
     c_bands:  1 eigenvalues not converged
     c_bands:  1 eigenvalues not converged
     c_bands:  1 eigenvalues not converged
     ethr =  2.19E-05,  avg # of iterations =  9.2

[...]

     iteration #  8     ecut=   100.00 Ry     beta= 0.40
     Davidson diagonalization with overlap
     c_bands:  1 eigenvalues not converged
     c_bands:  1 eigenvalues not converged
     c_bands:  1 eigenvalues not converged
     c_bands:  1 eigenvalues not converged
     c_bands:  1 eigenvalues not converged
     c_bands:  1 eigenvalues not converged
     c_bands:  1 eigenvalues not converged
     ethr =  8.26E-07,  avg # of iterations =  6.5

[...]

     total energy              =   -7144.31143445 Ry
     estimated scf accuracy    <       0.00000005 Ry

[...]

     iteration # 17     ecut=   100.00 Ry     beta= 0.40
     Davidson diagonalization with overlap
     ethr =  2.53E-11,  avg # of iterations =  2.0

     Magnetic moment per site:
     atom:    1    charge:   10.3475    magn:   -0.0000    constr:    0.0000
     atom:    2    charge:   10.3475    magn:   -0.0000    constr:    0.0000
     atom:    3    charge:   10.3475    magn:   -0.0000    constr:    0.0000
     atom:    4    charge:   10.3475    magn:   -0.0000    constr:    0.0000
     atom:    5    charge:   10.3473    magn:   -0.0000    constr:    0.0000
     atom:    6    charge:   10.3473    magn:   -0.0000    constr:    0.0000
     atom:    7    charge:   10.3473    magn:   -0.0000    constr:    0.0000
     atom:    8    charge:   10.3473    magn:   -0.0000    constr:    0.0000
     atom:    9    charge:    4.1259    magn:   -0.0000    constr:    0.0000
     atom:   10    charge:    4.1259    magn:   -0.0000    constr:    0.0000
     atom:   11    charge:    4.1259    magn:   -0.0000    constr:    0.0000
     atom:   12    charge:    4.1259    magn:   -0.0000    constr:    0.0000
     atom:   13    charge:    4.1261    magn:   -0.0000    constr:    0.0000
     atom:   14    charge:    4.1261    magn:   -0.0000    constr:    0.0000
     atom:   15    charge:    4.1261    magn:   -0.0000    constr:    0.0000
     atom:   16    charge:    4.1261    magn:   -0.0000    constr:    0.0000
     atom:   17    charge:    4.0998    magn:   -0.0000    constr:    0.0000
     atom:   18    charge:    4.0998    magn:   -0.0000    constr:    0.0000
     atom:   19    charge:    4.0998    magn:   -0.0000    constr:    0.0000
     atom:   20    charge:    4.0998    magn:   -0.0000    constr:    0.0000
     atom:   21    charge:    4.1001    magn:   -0.0000    constr:    0.0000
     atom:   22    charge:    4.1001    magn:   -0.0000    constr:    0.0000
     atom:   23    charge:    4.1001    magn:   -0.0000    constr:    0.0000
     atom:   24    charge:    4.1001    magn:   -0.0000    constr:    0.0000

     End of self-consistent calculation

     Number of k-points >= 100: set verbosity='high' to print the bands.

     the Fermi energy is    10.6335 ev

!    total energy              =   -7144.31143447 Ry

     total all-electron energy =   -271062.860065 Ry
     estimated scf accuracy    <          6.6E-09 Ry
     smearing contrib. (-TS)   =      -0.00586377 Ry
     internal energy E=F+TS    =   -7144.30557069 Ry

     The total energy is F=E-TS. E is the sum of the following terms:
     one-electron contribution =    -612.23233683 Ry
     hartree contribution      =     406.12506496 Ry
     xc contribution           =    -402.26827353 Ry
     ewald contribution        =    -952.95071202 Ry
     DFT-D3 Dispersion         =      -0.39340935 Ry
     one-center paw contrib.   =   -5582.58590394 Ry

     total magnetization       =    -0.00 Bohr mag/cell
     absolute magnetization    =     0.00 Bohr mag/cell

     convergence has been achieved in  17 iterations

     Forces acting on atoms (cartesian axes, Ry/au):

     atom    1 type  1   force =     0.00004510   -0.00000832   -0.00037107
     atom    2 type  1   force =     0.00004510    0.00000832   -0.00037107
     atom    3 type  1   force =    -0.00004510   -0.00000832    0.00037107
     atom    4 type  1   force =    -0.00004510    0.00000832    0.00037107
     atom    5 type  1   force =     0.00005179    0.00000000   -0.00036490
     atom    6 type  1   force =     0.00004869    0.00000000   -0.00037185
     atom    7 type  1   force =    -0.00005179    0.00000000    0.00036490
     atom    8 type  1   force =    -0.00004869    0.00000000    0.00037185
     atom    9 type  2   force =     0.00003888   -0.00000000    0.00002541
     atom   10 type  2   force =     0.00004008    0.00000000    0.00002602
     atom   11 type  2   force =    -0.00003888   -0.00000000   -0.00002541
     atom   12 type  2   force =    -0.00004008    0.00000000   -0.00002602
     atom   13 type  2   force =     0.00004123   -0.00000019    0.00002395
     atom   14 type  2   force =     0.00004123    0.00000019    0.00002395
     atom   15 type  2   force =    -0.00004123   -0.00000019   -0.00002395
     atom   16 type  2   force =    -0.00004123    0.00000019   -0.00002395
     atom   17 type  2   force =    -0.00019682    0.00000000    0.00034521
     atom   18 type  2   force =    -0.00019644   -0.00000000    0.00034556
     atom   19 type  2   force =     0.00019682    0.00000000   -0.00034521
     atom   20 type  2   force =     0.00019644   -0.00000000   -0.00034556
     atom   21 type  2   force =    -0.00019838   -0.00000132    0.00034608
     atom   22 type  2   force =    -0.00019838    0.00000132    0.00034608
     atom   23 type  2   force =     0.00019838   -0.00000132   -0.00034608
     atom   24 type  2   force =     0.00019838    0.00000132   -0.00034608

     Total force =     0.001549     Total SCF correction =     0.000182
     SCF correction compared to forces is large: reduce conv_thr to get better values

     Computing stress (Cartesian axis) and pressure

          total   stress  (Ry/bohr**3)                   (kbar)     P=        0.12
  -0.00000406   0.00000000   0.00000065           -0.60        0.00        0.10
   0.00000000   0.00000171   0.00000000            0.00        0.25        0.00
   0.00000065   0.00000000   0.00000473            0.10        0.00        0.70

     Writing output data file ./tmp/test_PBE.save/

     General routines

     Parallel routines

   This run was terminated on:  15:54:37   8Aug2023

   JOB DONE.