     Program PWSCF v.6.6 starts on  5Jul2023 at 16: 1:59

     R & G space division:  proc/nbgrp/npool/nimage =     128
     Fft bands division:     nmany     =       1
     Waiting for input...
     Reading input from standard input

     Current dimensions of program PWSCF are:
     Max number of different atomic species (ntypx) = 10
     Max number of k-points (npk) =  40000
     Max angular momentum in pseudopotentials (lmaxx) =  3
     file W.pbe-spn-kjpaw_psl.1.0.0.UPF: wavefunction(s)  6S 5P 5D renormalized
     file S.pbe-n-kjpaw_psl.1.0.0.UPF: wavefunction(s)  3S 3P renormalized

     Parameters for DFT-D3 Dispersion Correction:
       Reference C6 values for interpolation:

         atom   Coordination number   C6
         S          0.000           268.01
         S          0.995           261.99
         S          1.990           251.62
         W          0.000          1628.72
         W          1.929          1086.81
         W         10.915           796.19

       Values used:

         atom   Coordination number  R0_AB[au]  C6      C8
         W          9.217            3.766    796.19 128250.55
         W          9.217            3.766    796.19 128250.55
         W          9.217            3.766    796.19 128250.55
         W          9.217            3.766    796.19 128250.55
         W          9.217            3.766    796.19 128250.55
         W          9.217            3.766    796.19 128250.55
         W          9.217            3.766    796.19 128250.55
         W          9.217            3.766    796.19 128250.55
         S          3.531            3.128    251.62  12327.25
         S          3.531            3.128    251.62  12327.25
         S          3.531            3.128    251.62  12327.25
         S          3.531            3.128    251.62  12327.25
         S          3.531            3.128    251.62  12327.25
         S          3.531            3.128    251.62  12327.25
         S          3.531            3.128    251.62  12327.25
         S          3.531            3.128    251.62  12327.25
         S          3.631            3.128    251.62  12327.25
         S          3.631            3.128    251.62  12327.25
         S          3.631            3.128    251.62  12327.25
         S          3.631            3.128    251.62  12327.25
         S          3.631            3.128    251.62  12327.25
         S          3.631            3.128    251.62  12327.25
         S          3.631            3.128    251.62  12327.25
         S          3.631            3.128    251.62  12327.25

         Molecular C6 ( Ry / a.u.^6 ) =    229679.22

     Subspace diagonalization in iterative solution of the eigenvalue problem:
     a serial algorithm will be used

     Found symmetry operation: I + (  0.0000 -0.5000  0.0000)
     This is a supercell, fractional translations are disabled
     Message from routine setup:
     using ibrav=0 with symmetry is DISCOURAGED, use correct ibrav instead

     bravais-lattice index     =            0
     lattice parameter (alat)  =      24.2792  a.u.
     unit-cell volume          =    2987.0491 (a.u.)^3
     number of atoms/cell      =           24
     number of atomic types    =            2
     number of electrons       =       208.00
     number of Kohn-Sham states=          130
     kinetic-energy cutoff     =     100.0000  Ry
     charge density cutoff     =     500.0000  Ry
     convergence threshold     =      1.0E-08
     mixing beta               =       0.4000
     number of iterations used =            8  plain     mixing
     Exchange-correlation= SLA PW PBX PBC
                           (   1   4   3   4   0   0   0)

     celldm(1)=  24.279201  celldm(2)=   0.000000  celldm(3)=   0.000000
     celldm(4)=   0.000000  celldm(5)=   0.000000  celldm(6)=   0.000000

     crystal axes: (cart. coord. in units of alat)
               a(1) = (   1.008231   0.000000   0.005366 )
               a(2) = (   0.000000   0.502397   0.000000 )
               a(3) = (  -0.171267   0.000000   0.411122 )

     reciprocal axes: (cart. coord. in units 2 pi/alat)
               b(1) = (  0.989642 -0.000000  0.412271 )
               b(2) = (  0.000000  1.990459 -0.000000 )
               b(3) = ( -0.012916  0.000000  2.426987 )

     PseudoPot. # 1 for W  read from file:
     /scratch/bell/mandal13/Work_Data_1/Other-colab-projects/WS2_Li_Group_project/PP/W.pbe-spn-kjpaw_psl.1.0.0.UPF
     MD5 check sum: 03c3df5b60893f488392c7401945500a
     Pseudo is Projector augmented-wave + core cor, Zval = 14.0
     Generated using "atomic" code by A. Dal Corso v.6.2.2
     Shape of augmentation charge: PSQ
     Using radial grid of 1273 points,  6 beta functions with:
                l(1) =   0
                l(2) =   0
                l(3) =   1
                l(4) =   1
                l(5) =   2
                l(6) =   2
     Q(r) pseudized with 0 coefficients

     PseudoPot. # 2 for S  read from file:
     /scratch/bell/mandal13/Work_Data_1/Other-colab-projects/WS2_Li_Group_project/PP/S.pbe-n-kjpaw_psl.1.0.0.UPF
     MD5 check sum: fb45dfebcf3e72a4e1bd4a866ec2e262
     Pseudo is Projector augmented-wave + core cor, Zval =  6.0
     Generated using "atomic" code by A. Dal Corso v.6.3
     Shape of augmentation charge: PSQ
     Using radial grid of 1151 points,  6 beta functions with:
                l(1) =   0
                l(2) =   0
                l(3) =   1
                l(4) =   1
                l(5) =   2
                l(6) =   2
     Q(r) pseudized with 0 coefficients

     atomic species   valence    mass     pseudopotential
        W             14.00   183.84000     W ( 1.00)
        S              6.00    32.06500     S ( 1.00)

     Starting magnetic structure
     atomic species   magnetization
        W            0.300
        S            0.100

      4 Sym. Ops., with inversion, found

   Cartesian axes

     site n.     atom                  positions (alat units)
         1           W   tau(   1) = (   0.1953179   0.1255991   0.1233212  )
         2           W   tau(   2) = (   0.1953179   0.3767975   0.1233212  )
         3           W   tau(   3) = (   0.6416454   0.1255991   0.2931665  )
         4           W   tau(   4) = (   0.6416454   0.3767975   0.2931665  )
         5           W   tau(   5) = (   0.6994326  -0.0000000   0.1260040  )
         6           W   tau(   6) = (   0.6994327   0.2511983   0.1260039  )
         7           W   tau(   7) = (   0.1375306  -0.0000000   0.2904837  )
         8           W   tau(   8) = (   0.1375306   0.2511983   0.2904837  )
         9           S   tau(   9) = (   0.0576492   0.0000000   0.1199520  )
        10           S   tau(  10) = (   0.0576492   0.2511983   0.1199520  )
        11           S   tau(  11) = (   0.7793141   0.0000000   0.2965356  )
        12           S   tau(  12) = (   0.7793141   0.2511983   0.2965356  )
        13           S   tau(  13) = (   0.5617641   0.1255992   0.1226348  )
        14           S   tau(  14) = (   0.5617641   0.3767974   0.1226348  )
        15           S   tau(  15) = (   0.2751992   0.1255992   0.2938527  )
        16           S   tau(  16) = (   0.2751992   0.3767974   0.2938527  )
        17           S   tau(  17) = (   0.3313441   0.0000000   0.0740774  )
        18           S   tau(  18) = (   0.3313441   0.2511983   0.0740775  )
        19           S   tau(  19) = (   0.5056192   0.0000000   0.3424101  )
        20           S   tau(  20) = (   0.5056192   0.2511983   0.3424101  )
        21           S   tau(  21) = (   0.8354589   0.1255991   0.0767601  )
        22           S   tau(  22) = (   0.8354589   0.3767975   0.0767601  )
        23           S   tau(  23) = (   0.0015044   0.1255991   0.3397275  )
        24           S   tau(  24) = (   0.0015044   0.3767975   0.3397275  )

     number of k points=    40  Gaussian smearing, width (Ry)=  0.0100
                       cart. coord. in units 2pi/alat
        k(    1) = (   0.0000000   0.0000000   0.0000000), wk =   0.0092593
        k(    2) = (  -0.0021526   0.0000000   0.4044978), wk =   0.0185185
        k(    3) = (  -0.0043052   0.0000000   0.8089957), wk =   0.0185185
        k(    4) = (   0.0064579   0.0000000  -1.2134935), wk =   0.0092593
        k(    5) = (   0.0000000   0.3317432   0.0000000), wk =   0.0185185
        k(    6) = (  -0.0021526   0.3317432   0.4044978), wk =   0.0370370
        k(    7) = (  -0.0043052   0.3317432   0.8089957), wk =   0.0370370
        k(    8) = (   0.0064579   0.3317432  -1.2134935), wk =   0.0185185
        k(    9) = (   0.0000000   0.6634865   0.0000000), wk =   0.0185185
        k(   10) = (  -0.0021526   0.6634865   0.4044978), wk =   0.0370370
        k(   11) = (  -0.0043052   0.6634865   0.8089957), wk =   0.0370370
        k(   12) = (   0.0064579   0.6634865  -1.2134935), wk =   0.0185185
        k(   13) = (   0.0000000  -0.9952297   0.0000000), wk =   0.0092593
        k(   14) = (  -0.0021526  -0.9952297   0.4044978), wk =   0.0185185
        k(   15) = (  -0.0043052  -0.9952297   0.8089957), wk =   0.0185185
        k(   16) = (   0.0064579  -0.9952297  -1.2134935), wk =   0.0092593
        k(   17) = (   0.3298808   0.0000000   0.1374235), wk =   0.0185185
        k(   18) = (   0.3277282   0.0000000   0.5419213), wk =   0.0185185
        k(   19) = (   0.3255756   0.0000000   0.9464192), wk =   0.0185185
        k(   20) = (   0.3363387   0.0000000  -1.0760700), wk =   0.0185185
        k(   21) = (   0.3341861   0.0000000  -0.6715721), wk =   0.0185185
        k(   22) = (   0.3320334   0.0000000  -0.2670743), wk =   0.0185185
        k(   23) = (   0.3298808   0.3317432   0.1374235), wk =   0.0370370
        k(   24) = (   0.3277282   0.3317432   0.5419213), wk =   0.0370370
        k(   25) = (   0.3255756   0.3317432   0.9464192), wk =   0.0370370
        k(   26) = (   0.3363387   0.3317432  -1.0760700), wk =   0.0370370
        k(   27) = (   0.3341861   0.3317432  -0.6715721), wk =   0.0370370
        k(   28) = (   0.3320334   0.3317432  -0.2670743), wk =   0.0370370
        k(   29) = (   0.3298808   0.6634865   0.1374235), wk =   0.0370370
        k(   30) = (   0.3277282   0.6634865   0.5419213), wk =   0.0370370
        k(   31) = (   0.3255756   0.6634865   0.9464192), wk =   0.0370370
        k(   32) = (   0.3363387   0.6634865  -1.0760700), wk =   0.0370370
        k(   33) = (   0.3341861   0.6634865  -0.6715721), wk =   0.0370370
        k(   34) = (   0.3320334   0.6634865  -0.2670743), wk =   0.0370370
        k(   35) = (   0.3298808  -0.9952297   0.1374235), wk =   0.0185185
        k(   36) = (   0.3277282  -0.9952297   0.5419213), wk =   0.0185185
        k(   37) = (   0.3255756  -0.9952297   0.9464192), wk =   0.0185185
        k(   38) = (   0.3363387  -0.9952297  -1.0760700), wk =   0.0185185
        k(   39) = (   0.3341861  -0.9952297  -0.6715721), wk =   0.0185185
        k(   40) = (   0.3320334  -0.9952297  -0.2670743), wk =   0.0185185

     Initial potential from superposition of free atoms

     starting charge  207.99502, renormalised to  208.00000
     Starting wfcs are  168 randomized atomic wfcs
     Checking if some PAW data can be deallocated...

     Self-consistent Calculation

     iteration #  1     ecut=   100.00 Ry     beta= 0.40
     Davidson diagonalization with overlap
     ethr =  1.00E-02,  avg # of iterations =  3.1

     Threshold (ethr) on eigenvalues was too large:
     Diagonalizing with lowered threshold

     Davidson diagonalization with overlap
     ethr =  8.53E-04,  avg # of iterations =  1.6

     total energy              =   -7143.58860374 Ry
     estimated scf accuracy    <       1.83920112 Ry

     total magnetization       =     5.16 Bohr mag/cell
     absolute magnetization    =     7.20 Bohr mag/cell

[...]

     iteration #  8     ecut=   100.00 Ry     beta= 0.40
     Davidson diagonalization with overlap
     c_bands:  1 eigenvalues not converged
     ethr =  8.17E-07,  avg # of iterations =  6.5

[...]

     total energy              =   -7144.31134183 Ry
     estimated scf accuracy    <       0.00000004 Ry

[...]

     iteration # 17     ecut=   100.00 Ry     beta= 0.40
     Davidson diagonalization with overlap
     ethr =  1.99E-11,  avg # of iterations =  2.0

     Magnetic moment per site:
     atom:    1    charge:   10.3475    magn:   -0.0000    constr:    0.0000
     atom:    2    charge:   10.3475    magn:   -0.0000    constr:    0.0000
     atom:    3    charge:   10.3475    magn:   -0.0000    constr:    0.0000
     atom:    4    charge:   10.3475    magn:   -0.0000    constr:    0.0000
     atom:    5    charge:   10.3474    magn:   -0.0000    constr:    0.0000
     atom:    6    charge:   10.3474    magn:   -0.0000    constr:    0.0000
     atom:    7    charge:   10.3474    magn:   -0.0000    constr:    0.0000
     atom:    8    charge:   10.3474    magn:   -0.0000    constr:    0.0000
     atom:    9    charge:    4.1258    magn:   -0.0000    constr:    0.0000
     atom:   10    charge:    4.1258    magn:   -0.0000    constr:    0.0000
     atom:   11    charge:    4.1258    magn:   -0.0000    constr:    0.0000
     atom:   12    charge:    4.1258    magn:   -0.0000    constr:    0.0000
     atom:   13    charge:    4.1260    magn:   -0.0000    constr:    0.0000
     atom:   14    charge:    4.1260    magn:   -0.0000    constr:    0.0000
     atom:   15    charge:    4.1260    magn:   -0.0000    constr:    0.0000
     atom:   16    charge:    4.1260    magn:   -0.0000    constr:    0.0000
     atom:   17    charge:    4.0997    magn:   -0.0000    constr:    0.0000
     atom:   18    charge:    4.0997    magn:   -0.0000    constr:    0.0000
     atom:   19    charge:    4.0997    magn:   -0.0000    constr:    0.0000
     atom:   20    charge:    4.0997    magn:   -0.0000    constr:    0.0000
     atom:   21    charge:    4.1000    magn:   -0.0000    constr:    0.0000
     atom:   22    charge:    4.1000    magn:   -0.0000    constr:    0.0000
     atom:   23    charge:    4.1000    magn:   -0.0000    constr:    0.0000
     atom:   24    charge:    4.1000    magn:   -0.0000    constr:    0.0000

     End of self-consistent calculation

 ------ SPIN UP ------------

          k = 0.0000 0.0000 0.0000 ( 50421 PWs)   bands (ev):

   -63.6554 -63.6554 -63.6240 -63.6240 -63.6240 -63.6239 -63.6064 -63.6064
   -28.1586 -28.1586 -28.1586 -28.1586 -28.1101 -28.1101 -27.9444 -27.9444
   -27.9000 -27.9000 -27.8357 -27.8357 -27.8357 -27.8357 -27.7445 -27.7445
   -27.7396 -27.7396 -27.6528 -27.6528 -27.6528 -27.6528 -27.5455 -27.5455
    -4.1785  -3.9042  -2.8522  -2.5919  -2.2936  -2.2936  -2.1168  -2.1167
    -1.9868  -1.9560  -1.9201  -1.7675  -1.7675  -1.7547  -1.7009  -1.7009
     3.9552   3.9608   3.9730   4.8040   4.8040   4.8224   4.8224   5.1371
     5.2348   5.2348   5.4752   5.5816   5.5816   5.7890   5.9144   5.9193
     6.0686   6.0686   6.1637   6.1637   6.8215   6.9179   6.9536   6.9851
     7.0645   7.0645   7.1082   7.1155   7.1155   7.3508   7.3508   7.5008
     7.6935   7.6935   7.7508   7.8040   8.3522   8.3522   8.4792   8.6263
     8.6263   8.8907   9.0577   9.1896   9.1896   9.3082   9.3299   9.4654
     9.4654   9.5479   9.9444  10.2495  10.2941  10.4572  10.4790  10.5095
    10.6776  10.9165  11.6085  11.6322  12.7294  12.8701  13.0580  13.0580
    13.0853  13.0853  13.1086  13.1086  13.3326  13.3326  13.4114  13.4479
    13.5900  13.5900  13.7957  14.3039  14.3627  14.4386  14.4386  14.5907
    14.6186  14.7170

          k =-0.0022 0.0000 0.4045 ( 50419 PWs)   bands (ev):

[...]

 ------ SPIN DOWN ----------

[...]

          k =-0.0043-0.9952 0.8090 ( 50418 PWs)   bands (ev):

[...]

          k = 0.3320-0.9952-0.2671 ( 50442 PWs)   bands (ev):

   -63.6447 -63.6447 -63.6447 -63.6447 -63.6103 -63.6103 -63.6103 -63.6103
   -28.1062 -28.1062 -28.1062 -28.1062 -28.0641 -28.0641 -28.0641 -28.0641
   -27.8708 -27.8708 -27.8707 -27.8707 -27.8188 -27.8188 -27.8188 -27.8188
   -27.7164 -27.7164 -27.7164 -27.7164 -27.5654 -27.5654 -27.5654 -27.5654
    -3.3561  -3.3561  -3.1185  -3.1184  -2.5726  -2.5726  -2.3229  -2.3228
    -2.0246  -2.0246  -1.9294  -1.9294  -1.6950  -1.6950  -1.6694  -1.6693
     4.6085   4.6085   4.8237   4.8237   4.8392   4.8392   5.2380   5.2380
     5.2704   5.2704   5.6155   5.6155   5.8351   5.8351   5.9218   5.9218
     6.2337   6.2337   6.3610   6.3610   6.6344   6.6345   6.8465   6.8465
     6.9280   6.9280   7.0353   7.0353   7.1645   7.1645   7.3407   7.3407
     7.5662   7.5662   7.6569   7.6569   7.9714   7.9714   7.9988   7.9988
     8.5540   8.5540   8.6923   8.6923   9.2726   9.2726   9.3724   9.3724
     9.6113   9.6113   9.7343   9.7343  10.0133  10.0133  10.2475  10.2475
    11.3209  11.3209  11.6756  11.6756  12.2831  12.2831  12.4545  12.4545
    13.0830  13.0830  13.3859  13.3859  13.5251  13.5251  13.7212  13.7212
    13.7242  13.7242  13.7596  13.7596  14.3505  14.3505  14.5218  14.5218
    14.7106  14.7107

     the Fermi energy is    10.6392 ev

!    total energy              =   -7144.31134184 Ry

     total all-electron energy =   -271062.859972 Ry
     estimated scf accuracy    <          7.3E-09 Ry
     smearing contrib. (-TS)   =      -0.00576933 Ry
     internal energy E=F+TS    =   -7144.30557251 Ry

     The total energy is F=E-TS. E is the sum of the following terms:
     one-electron contribution =    -612.23547593 Ry
     hartree contribution      =     406.12756418 Ry
     xc contribution           =    -402.26779471 Ry
     ewald contribution        =    -952.95071202 Ry
     DFT-D3 Dispersion         =      -0.39340935 Ry
     one-center paw contrib.   =   -5582.58574468 Ry

     total magnetization       =    -0.00 Bohr mag/cell
     absolute magnetization    =     0.00 Bohr mag/cell

     convergence has been achieved in  17 iterations

     Forces acting on atoms (cartesian axes, Ry/au):

     atom    1 type  1   force =    -0.00007280   -0.00000920    0.00000466
     atom    2 type  1   force =    -0.00007280    0.00000920    0.00000466
     atom    3 type  1   force =     0.00007280   -0.00000920   -0.00000466
     atom    4 type  1   force =     0.00007280    0.00000920   -0.00000466
     atom    5 type  1   force =    -0.00004927    0.00000000    0.00002096
     atom    6 type  1   force =    -0.00005490    0.00000000    0.00001402
     atom    7 type  1   force =     0.00004927    0.00000000   -0.00002096
     atom    8 type  1   force =     0.00005490    0.00000000   -0.00001402
     atom    9 type  2   force =    -0.00009265   -0.00000000    0.00009768
     atom   10 type  2   force =    -0.00009147    0.00000000    0.00009874
     atom   11 type  2   force =     0.00009265   -0.00000000   -0.00009768
     atom   12 type  2   force =     0.00009147    0.00000000   -0.00009874
     atom   13 type  2   force =    -0.00008926   -0.00000016    0.00009865
     atom   14 type  2   force =    -0.00008926    0.00000016    0.00009865
     atom   15 type  2   force =     0.00008926   -0.00000016   -0.00009865
     atom   16 type  2   force =     0.00008926    0.00000016   -0.00009865
     atom   17 type  2   force =    -0.00006688    0.00000000    0.00008864
     atom   18 type  2   force =    -0.00006619    0.00000000    0.00008866
     atom   19 type  2   force =     0.00006688    0.00000000   -0.00008864
     atom   20 type  2   force =     0.00006619    0.00000000   -0.00008866
     atom   21 type  2   force =    -0.00006394   -0.00000152    0.00008911
     atom   22 type  2   force =    -0.00006394    0.00000152    0.00008911
     atom   23 type  2   force =     0.00006394   -0.00000152   -0.00008911
     atom   24 type  2   force =     0.00006394    0.00000152   -0.00008911

     Total force =     0.000524     Total SCF correction =     0.000268
     SCF correction compared to forces is large: reduce conv_thr to get better values

     Computing stress (Cartesian axis) and pressure

          total   stress  (Ry/bohr**3)                   (kbar)     P=        0.02
   0.00000034   0.00000000   0.00000002            0.05        0.00        0.00
   0.00000000  -0.00000025   0.00000000            0.00       -0.04        0.00
   0.00000002   0.00000000   0.00000037            0.00        0.00        0.05

     Writing output data file ./tmp/test_PBE.save/

     General routines

     Parallel routines

   This run was terminated on:  16:18:33   5Jul2023

   JOB DONE.